language ESSENCE' 1.0
letting AssignmentMatrix be [[1, 1, 0, 1, 1, 0, 0, 0, 1, 0, 1, 0, 1, 1, 0, 1, 0, 0, 0, 0, 1, 0, 0], 
[0, 0, 1, 0, 0, 1, 0, 1, 0, 0, 0, 1, 0, 0, 0, 1, 1, 0, 1, 0, 0, 0, 0], 
[0, 0, 0, 0, 0, 0, 0, 0, 0, 0, 0, 0, 0, 0, 0, 0, 0, 0, 0, 0, 0, 0, 0], 
[0, 0, 0, 0, 0, 0, 1, 0, 0, 1, 0, 0, 0, 0, 0, 0, 0, 0, 0, 1, 0, 0, 1], 
[1, 0, 0, 0, 0, 0, 0, 0, 0, 0, 1, 0, 0, 0, 0, 0, 0, 0, 0, 0, 0, 0, 0]]
letting OccupancyVector be [1, 1, 1, 1, 1, 1, 1, 1, 1, 1, 1, 1, 1, 1, 0, 1, 1, 0, 1, 1, 1, 0, 1]
letting Price be [420, 116, 116, 116, 116, 116, 210, 116, 116, 210, 420, 116, 116, 126, 0, 350, 116, 0, 116, 210, 116, 0, 210]
letting VMType be [278, 433, 433, 433, 433, 433, 341, 433, 433, 341, 278, 433, 433, 477, 422, 316, 433, 66, 433, 341, 433, 431, 341]
